NAME : rnd17_50.tsp
TYPE : TSP
DIMENSION : 50
EDGE_WEIGHT_TYPE : EUC_2D
NODE_COORD_SECTION
1 796 312
2 725 341
3 299 241
4 788 480
5 638 468
6 459 624
7 388 802
8 702 221
9 553 703
10 867 693
11 585 437
12 717 98
13 577 650
14 416 39
15 370 376
16 798 789
17 737 625
18 138 206
19 179 972
20 566 120
21 301 771
22 240 885
23 271 696
24 924 741
25 909 807
26 806 481
27 951 922
28 55 696
29 148 126
30 288 533
31 669 13
32 776 642
33 85 710
34 945 448
35 267 658
36 540 495
37 343 667
38 338 257
39 89 423
40 479 744
41 109 866
42 645 521
43 812 647
44 937 401
45 241 144
46 5 554
47 616 741
48 716 811
49 717 197
50 717 490
